\ENCODING=ISO-8859-1
\Problem name: ilog.cplex

Minimize
 obj1: 103543 x1 + 101747 x2 + 90354 x3 + 105423 x4 + 109742 x5 + 101059 x6
       + 95043 x7 + 102172 x8 + 109221 x9 + 108593 x10 + 102126 x11 + 97194 x12
       + 90740 x13 + 93977 x14 + 99532 x15 + 91357 x16 + 101499 x17
       + 106261 x18 + 90858 x19 + 103567 x20 + 90649 x21 + 102562 x22
       + 103025 x23 + 96373 x24 + 97461 x25 + 93314 x26 + 98373 x27
       + 100395 x28 + 105038 x29 + 101044 x30 + 94819 x31 + 107644 x32
       + 107354 x33 + 103523 x34 + 109914 x35 + 95540 x36 + 99903 x37
       + 106694 x38 + 102464 x39 + 105761 x40 + 102428 x41 + 107963 x42
       + 108845 x43 + 95106 x44 + 95911 x45 + 106205 x46 + 100217 x47
       + 99110 x48 + 105457 x49 + 91326 x50 + 101542 x51 + 103424 x52
       + 105684 x53 + 103197 x54 + 93672 x55 + 102814 x56 + 105892 x57
       + 107518 x58 + 105683 x59 + 103141 x60 + 107785 x61 + 106588 x62
       + 104624 x63 + 100149 x64 + 106709 x65 + 92276 x66 + 107285 x67
       + 98371 x68 + 93745 x69 + 94080 x70 + 94313 x71 + 99719 x72 + 95635 x73
       + 96073 x74 + 96127 x75 + 94648 x76 + 105026 x77 + 109340 x78
       + 105774 x79 + 102787 x80 + 108794 x81 + 94601 x82 + 100073 x83
       + 100416 x84 + 92988 x85 + 100981 x86 + 109249 x87 + 105280 x88
       + 106148 x89 + 107144 x90 + 109800 x91 + 92682 x92 + 93865 x93
       + 107852 x94 + 99239 x95 + 98996 x96 + 99195 x97 + 101588 x98
       + 95940 x99 + 96586 x100 + 95898 x101 + 102984 x102 + 92476 x103
       + 97565 x104 + 104474 x105 + 107582 x106 + 96636 x107 + 102921 x108
       + 94550 x109 + 95844 x110 + 100730 x111 + 98220 x112 + 101458 x113
       + 98362 x114 + 106864 x115 + 107465 x116 + 99652 x117 + 94834 x118
       + 103518 x119 + 92604 x120 + 107809 x121 + 103301 x122 + 97005 x123
       + 90819 x124 + 104801 x125 + 96770 x126 + 97270 x127 + 93700 x128
       + 98389 x129 + 102344 x130 + 96930 x131 + 90850 x132 + 99792 x133
       + 92702 x134 + 91384 x135 + 99268 x136 + 109427 x137 + 94261 x138
       + 91692 x139 + 102992 x140 + 90555 x141 + 93280 x142 + 107724 x143
       + 94409 x144 + 100482 x145 + 90298 x146 + 103939 x147 + 100939 x148
       + 96998 x149 + 97497 x150 + 99339 x151 + 109629 x152 + 104312 x153
       + 94654 x154 + 109963 x155 + 96158 x156 + 94926 x157 + 91114 x158
       + 94883 x159 + 99251 x160 + 101759 x161 + 103572 x162 + 104745 x163
       + 96724 x164 + 98262 x165 + 92434 x166 + 105695 x167 + 95158 x168
       + 93351 x169 + 103144 x170 + 100938 x171 + 101618 x172 + 102709 x173
       + 93102 x174 + 97159 x175 + 102917 x176 + 98321 x177 + 109671 x178
       + 103722 x179 + 95562 x180 + 107848 x181 + 96763 x182 + 101398 x183
       + 108492 x184 + 94475 x185 + 109368 x186 + 91204 x187 + 92547 x188
       + 103628 x189 + 95612 x190 + 95460 x191 + 93339 x192 + 96617 x193
       + 104157 x194 + 97465 x195 + 103676 x196 + 101000 x197 + 104152 x198
       + 108855 x199 + 103266 x200 + 99509 x201 + 103913 x202 + 98638 x203
       + 103788 x204 + 99175 x205 + 109768 x206 + 107286 x207 + 108093 x208
       + 107707 x209 + 103021 x210 + 93297 x211 + 100374 x212 + 107491 x213
       + 109634 x214 + 90692 x215 + 101017 x216 + 101496 x217 + 99372 x218
       + 97713 x219 + 92360 x220 + 109921 x221 + 99037 x222 + 109294 x223
       + 109762 x224 + 101604 x225 + 97839 x226 + 108911 x227 + 96104 x228
       + 90001 x229 + 102055 x230 + 108996 x231 + 97289 x232 + 109987 x233
       + 100826 x234 + 93365 x235 + 91297 x236 + 98754 x237 + 95277 x238
       + 109953 x239 + 94000 x240 + 91224 x241 + 93193 x242 + 100276 x243
       + 107146 x244 + 108416 x245 + 108536 x246 + 101039 x247 + 102399 x248
       + 106831 x249 + 97986 x250 + 105536 x251 + 106785 x252 + 108249 x253
       + 97653 x254 + 103713 x255 + 105860 x256 + 99054 x257 + 107841 x258
       + 103540 x259 + 97382 x260 + 108852 x261 + 98380 x262 + 93649 x263
       + 108425 x264 + 98870 x265 + 93218 x266 + 93708 x267 + 99293 x268
       + 90981 x269 + 109159 x270 + 90834 x271 + 94421 x272 + 99510 x273
       + 96917 x274 + 106917 x275 + 101594 x276 + 94827 x277 + 106580 x278
       + 93947 x279 + 92507 x280 + 90300 x281 + 94146 x282 + 92265 x283
       + 100093 x284 + 102275 x285 + 100954 x286 + 90093 x287 + 101009 x288
       + 106572 x289 + 93627 x290 + 91827 x291 + 95307 x292 + 104335 x293
       + 108603 x294 + 97236 x295 + 109512 x296 + 95113 x297 + 102329 x298
       + 94069 x299 + 94255 x300 + 103039 x301 + 99580 x302 + 101405 x303
       + 101644 x304 + 104864 x305 + 103445 x306 + 95367 x307 + 104758 x308
       + 100157 x309 + 95368 x310 + 105904 x311 + 94266 x312 + 96840 x313
       + 101603 x314 + 98251 x315 + 94064 x316 + 101316 x317 + 108352 x318
       + 105852 x319 + 92369 x320 + 107821 x321 + 108947 x322 + 94738 x323
       + 107211 x324 + 108770 x325 + 96977 x326 + 91257 x327 + 92250 x328
       + 98642 x329 + 91553 x330 + 95813 x331 + 101536 x332 + 104395 x333
       + 102141 x334 + 108638 x335 + 108395 x336 + 106541 x337 + 97321 x338
       + 97473 x339 + 95834 x340 + 96741 x341 + 94321 x342 + 101646 x343
       + 103711 x344 + 90135 x345 + 94337 x346 + 92177 x347 + 91344 x348
       + 93637 x349 + 92409 x350 + 93351 x351 + 93336 x352 + 104992 x353
       + 90034 x354 + 97623 x355 + 91077 x356 + 101687 x357 + 93690 x358
       + 92781 x359 + 92761 x360 + 90647 x361 + 98976 x362 + 99436 x363
       + 93296 x364 + 105945 x365 + 98745 x366 + 105168 x367 + 97388 x368
       + 98848 x369 + 92317 x370 + 105556 x371 + 95351 x372 + 94136 x373
       + 93594 x374 + 93970 x375 + 91582 x376 + 91150 x377 + 95377 x378
       + 92757 x379 + 91258 x380 + 91103 x381 + 108182 x382 + 105375 x383
       + 106425 x384 + 104334 x385 + 108993 x386 + 95674 x387 + 94505 x388
       + 95476 x389 + 95266 x390 + 95788 x391 + 99719 x392 + 105465 x393
       + 90013 x394 + 95420 x395 + 101209 x396 + 95894 x397 + 104897 x398
       + 92158 x399 + 105604 x400 + 93403 x401 + 100005 x402 + 105006 x403
       + 96294 x404 + 109683 x405 + 101355 x406 + 91440 x407 + 106869 x408
       + 96057 x409 + 90131 x410 + 102084 x411 + 101967 x412 + 100744 x413
       + 101311 x414 + 96485 x415 + 105227 x416 + 91588 x417 + 103546 x418
       + 108478 x419 + 91056 x420 + 94629 x421 + 106758 x422 + 101628 x423
       + 100935 x424 + 92818 x425 + 95658 x426 + 93485 x427 + 95724 x428
       + 107691 x429 + 90639 x430 + 105381 x431 + 102566 x432 + 103759 x433
       + 99338 x434 + 93100 x435 + 92172 x436 + 90321 x437 + 106867 x438
       + 108330 x439 + 109431 x440 + 101081 x441 + 91514 x442 + 107131 x443
       + 106915 x444 + 104611 x445 + 92665 x446 + 102236 x447 + 91703 x448
       + 101298 x449 + 99234 x450 + 97332 x451 + 102324 x452 + 105087 x453
       + 97824 x454 + 101972 x455 + 93885 x456 + 91631 x457 + 96454 x458
       + 96839 x459 + 106360 x460 + 98386 x461 + 101848 x462 + 100870 x463
       + 103521 x464 + 106740 x465 + 96163 x466 + 104074 x467 + 98140 x468
       + 101439 x469 + 92467 x470 + 92883 x471 + 102861 x472 + 108376 x473
       + 107340 x474 + 108492 x475 + 105553 x476 + 98236 x477 + 93729 x478
       + 102873 x479 + 102922 x480 + 96889 x481 + 100262 x482 + 96857 x483
       + 91374 x484 + 104414 x485 + 97681 x486 + 106292 x487 + 94898 x488
       + 93424 x489 + 100669 x490 + 92089 x491 + 105142 x492 + 94970 x493
       + 108652 x494 + 101545 x495 + 100107 x496 + 94906 x497 + 97269 x498
       + 104695 x499 + 109826 x500 + 97142 x501 + 103755 x502 + 92309 x503
       + 94615 x504 + 94925 x505 + 104424 x506 + 103388 x507 + 106085 x508
       + 106615 x509 + 97714 x510 + 100760 x511 + 91865 x512 + 108080 x513
       + 98912 x514 + 94306 x515 + 95486 x516 + 105081 x517 + 105982 x518
       + 97959 x519 + 103981 x520 + 95934 x521 + 109848 x522 + 98800 x523
       + 107506 x524 + 97249 x525 + 97035 x526 + 94424 x527 + 97630 x528
       + 103681 x529 + 107739 x530 + 98205 x531 + 103962 x532 + 106418 x533
       + 108207 x534 + 101157 x535 + 92356 x536 + 104495 x537 + 92740 x538
       + 93812 x539 + 102210 x540 + 105218 x541 + 93509 x542 + 107214 x543
       + 95241 x544 + 103425 x545 + 106035 x546 + 109984 x547 + 102010 x548
       + 90553 x549 + 98377 x550 + 102640 x551 + 95412 x552 + 97304 x553
       + 100363 x554 + 98265 x555 + 105537 x556 + 108696 x557 + 98370 x558
       + 95983 x559 + 95324 x560 + 99510 x561 + 101885 x562 + 109761 x563
       + 94755 x564 + 102484 x565 + 108968 x566 + 95574 x567 + 106846 x568
       + 103195 x569 + 92391 x570 + 108204 x571 + 94301 x572 + 105373 x573
       + 93885 x574 + 101598 x575 + 106717 x576 + 90920 x577 + 95190 x578
       + 90035 x579 + 104757 x580 + 109999 x581 + 91499 x582 + 91254 x583
       + 99961 x584 + 98307 x585 + 105406 x586 + 97257 x587 + 96657 x588
       + 91000 x589 + 107623 x590 + 103684 x591 + 95922 x592 + 105743 x593
       + 94471 x594 + 94446 x595 + 100601 x596 + 100941 x597 + 91587 x598
       + 104725 x599 + 164277 x600 + 432407 x601 + 363936 x602 + 413414 x603
       + 386560 x604 + 431839 x605 + 365021 x606 + 402076 x607 + 392227 x608
       + 403301 x609 + 408737 x610 + 415427 x611 + 434291 x612 + 361841 x613
       + 363258 x614 + 389994 x615 + 362704 x616 + 385523 x617 + 397619 x618
       + 427855 x619 + 390225 x620 + 361407 x621 + 415044 x622 + 406767 x623
       + 427777 x624 + 424343 x625 + 427454 x626 + 386511 x627 + 394545 x628
       + 414630 x629 + 423597 x630 + 419458 x631 + 401829 x632 + 376355 x633
       + 413294 x634 + 422797 x635 + 403530 x636 + 381371 x637 + 367906 x638
       + 386833 x639 + 387452 x640 + 394629 x641 + 362163 x642 + 378203 x643
       + 370421 x644 + 374747 x645 + 395113 x646 + 388825 x647 + 436582 x648
       + 369409 x649 + 408002 x650 + 400837 x651 + 422039 x652 + 418404 x653
       + 404490 x654 + 364745 x655 + 360334 x656 + 377804 x657 + 393674 x658
       + 362434 x659 + 645990 x660
Subject To
 c1:   x4 + x7 + x8 - x12 - x14 - x20 + x22 - x23 - x26 - x27 - x33 + x37 + x51
       + x54  = 0
 c2:   x64 + x67 + x68 - x72 - x74 - x80 + x82 - x83 - x86 - x87 - x93 + x97
       + x111 + x114  = 0
 c3:   x124 + x127 + x128 - x132 - x134 - x140 + x142 - x143 - x146 - x147
       - x153 + x157 + x171 + x174  = 0
 c4:   x184 + x187 + x188 - x192 - x194 - x200 + x202 - x203 - x206 - x207
       - x213 + x217 + x231 + x234  = 0
 c5:   x244 + x247 + x248 - x252 - x254 - x260 + x262 - x263 - x266 - x267
       - x273 + x277 + x291 + x294  = 0
 c6:   x304 + x307 + x308 - x312 - x314 - x320 + x322 - x323 - x326 - x327
       - x333 + x337 + x351 + x354  = 0
 c7:   x364 + x367 + x368 - x372 - x374 - x380 + x382 - x383 - x386 - x387
       - x393 + x397 + x411 + x414  = 0
 c8:   x424 + x427 + x428 - x432 - x434 - x440 + x442 - x443 - x446 - x447
       - x453 + x457 + x471 + x474  = -1
 c9:   x484 + x487 + x488 - x492 - x494 - x500 + x502 - x503 - x506 - x507
       - x513 + x517 + x531 + x534  = 0
 c10:  x544 + x547 + x548 - x552 - x554 - x560 + x562 - x563 - x566 - x567
       - x573 + x577 + x591 + x594  = -1
 c11:  x1 - x3 - x8 + x14 - x18 + x19 - x24 + x25 - x34 - x39 + x44 + x50 + x55
        = 0
 c12:  x61 - x63 - x68 + x74 - x78 + x79 - x84 + x85 - x94 - x99 + x104 + x110
       + x115  = 0
 c13:  x121 - x123 - x128 + x134 - x138 + x139 - x144 + x145 - x154 - x159
       + x164 + x170 + x175  = 0
 c14:  x181 - x183 - x188 + x194 - x198 + x199 - x204 + x205 - x214 - x219
       + x224 + x230 + x235  = 0
 c15:  x241 - x243 - x248 + x254 - x258 + x259 - x264 + x265 - x274 - x279
       + x284 + x290 + x295  = 0
 c16:  x301 - x303 - x308 + x314 - x318 + x319 - x324 + x325 - x334 - x339
       + x344 + x350 + x355  = -1
 c17:  x361 - x363 - x368 + x374 - x378 + x379 - x384 + x385 - x394 - x399
       + x404 + x410 + x415  = 1
 c18:  x421 - x423 - x428 + x434 - x438 + x439 - x444 + x445 - x454 - x459
       + x464 + x470 + x475  = 0
 c19:  x481 - x483 - x488 + x494 - x498 + x499 - x504 + x505 - x514 - x519
       + x524 + x530 + x535  = -1
 c20:  x541 - x543 - x548 + x554 - x558 + x559 - x564 + x565 - x574 - x579
       + x584 + x590 + x595  = 0
 c21:  x2 - x10 + x16 - x17 + x32 + x39 - x40 - x51 - x53 - x55 + x56  = 1
 c22:  x62 - x70 + x76 - x77 + x92 + x99 - x100 - x111 - x113 - x115 + x116
        = 1
 c23:  x122 - x130 + x136 - x137 + x152 + x159 - x160 - x171 - x173 - x175
       + x176  = 0
 c24:  x182 - x190 + x196 - x197 + x212 + x219 - x220 - x231 - x233 - x235
       + x236  = 0
 c25:  x242 - x250 + x256 - x257 + x272 + x279 - x280 - x291 - x293 - x295
       + x296  = 0
 c26:  x302 - x310 + x316 - x317 + x332 + x339 - x340 - x351 - x353 - x355
       + x356  = 0
 c27:  x362 - x370 + x376 - x377 + x392 + x399 - x400 - x411 - x413 - x415
       + x416  = 0
 c28:  x422 - x430 + x436 - x437 + x452 + x459 - x460 - x471 - x473 - x475
       + x476  = 0
 c29:  x482 - x490 + x496 - x497 + x512 + x519 - x520 - x531 - x533 - x535
       + x536  = 0
 c30:  x542 - x550 + x556 - x557 + x572 + x579 - x580 - x591 - x593 - x595
       + x596  = 0
 c31:  - x2 - x4 - x5 + x9 + x15 - x19 + x23 + x40 + x41 - x45 + x46 - x60  = 0
 c32:  - x62 - x64 - x65 + x69 + x75 - x79 + x83 + x100 + x101 - x105 + x106
       - x120  = -1
 c33:  - x122 - x124 - x125 + x129 + x135 - x139 + x143 + x160 + x161 - x165
       + x166 - x180  = -1
 c34:  - x182 - x184 - x185 + x189 + x195 - x199 + x203 + x220 + x221 - x225
       + x226 - x240  = 0
 c35:  - x242 - x244 - x245 + x249 + x255 - x259 + x263 + x280 + x281 - x285
       + x286 - x300  = 0
 c36:  - x302 - x304 - x305 + x309 + x315 - x319 + x323 + x340 + x341 - x345
       + x346 - x360  = 0
 c37:  - x362 - x364 - x365 + x369 + x375 - x379 + x383 + x400 + x401 - x405
       + x406 - x420  = 0
 c38:  - x422 - x424 - x425 + x429 + x435 - x439 + x443 + x460 + x461 - x465
       + x466 - x480  = 1
 c39:  - x482 - x484 - x485 + x489 + x495 - x499 + x503 + x520 + x521 - x525
       + x526 - x540  = 0
 c40:  - x542 - x544 - x545 + x549 + x555 - x559 + x563 + x580 + x581 - x585
       + x586 - x600  = 0
 c41:  - x13 - x22 + x24 + x27 + x28 + x30 - x31 + x38 + x43 + x45 - x47 - x49
       + x53  = 0
 c42:  - x73 - x82 + x84 + x87 + x88 + x90 - x91 + x98 + x103 + x105 - x107
       - x109 + x113  = 0
 c43:  - x133 - x142 + x144 + x147 + x148 + x150 - x151 + x158 + x163 + x165
       - x167 - x169 + x173  = 0
 c44:  - x193 - x202 + x204 + x207 + x208 + x210 - x211 + x218 + x223 + x225
       - x227 - x229 + x233  = 0
 c45:  - x253 - x262 + x264 + x267 + x268 + x270 - x271 + x278 + x283 + x285
       - x287 - x289 + x293  = 1
 c46:  - x313 - x322 + x324 + x327 + x328 + x330 - x331 + x338 + x343 + x345
       - x347 - x349 + x353  = 0
 c47:  - x373 - x382 + x384 + x387 + x388 + x390 - x391 + x398 + x403 + x405
       - x407 - x409 + x413  = 0
 c48:  - x433 - x442 + x444 + x447 + x448 + x450 - x451 + x458 + x463 + x465
       - x467 - x469 + x473  = 0
 c49:  - x493 - x502 + x504 + x507 + x508 + x510 - x511 + x518 + x523 + x525
       - x527 - x529 + x533  = 0
 c50:  - x553 - x562 + x564 + x567 + x568 + x570 - x571 + x578 + x583 + x585
       - x587 - x589 + x593  = 0
 c51:  - x1 + x3 - x9 + x10 + x11 + x20 - x28 + x29 - x35 - x42 - x48 + x49
       - x52 - x56 + x58  = 0
 c52:  - x61 + x63 - x69 + x70 + x71 + x80 - x88 + x89 - x95 - x102 - x108
       + x109 - x112 - x116 + x118  = 0
 c53:  - x121 + x123 - x129 + x130 + x131 + x140 - x148 + x149 - x155 - x162
       - x168 + x169 - x172 - x176 + x178  = 0
 c54:  - x181 + x183 - x189 + x190 + x191 + x200 - x208 + x209 - x215 - x222
       - x228 + x229 - x232 - x236 + x238  = 1
 c55:  - x241 + x243 - x249 + x250 + x251 + x260 - x268 + x269 - x275 - x282
       - x288 + x289 - x292 - x296 + x298  = 0
 c56:  - x301 + x303 - x309 + x310 + x311 + x320 - x328 + x329 - x335 - x342
       - x348 + x349 - x352 - x356 + x358  = 0
 c57:  - x361 + x363 - x369 + x370 + x371 + x380 - x388 + x389 - x395 - x402
       - x408 + x409 - x412 - x416 + x418  = 0
 c58:  - x421 + x423 - x429 + x430 + x431 + x440 - x448 + x449 - x455 - x462
       - x468 + x469 - x472 - x476 + x478  = 0
 c59:  - x481 + x483 - x489 + x490 + x491 + x500 - x508 + x509 - x515 - x522
       - x528 + x529 - x532 - x536 + x538  = 0
 c60:  - x541 + x543 - x549 + x550 + x551 + x560 - x568 + x569 - x575 - x582
       - x588 + x589 - x592 - x596 + x598  = 0
 c61:  x12 + x13 - x15 + x17 + x18 - x21 + x36 - x43 + x52 - x54 - x58 - x59
        = 0
 c62:  x72 + x73 - x75 + x77 + x78 - x81 + x96 - x103 + x112 - x114 - x118
       - x119  = 0
 c63:  x132 + x133 - x135 + x137 + x138 - x141 + x156 - x163 + x172 - x174
       - x178 - x179  = 0
 c64:  x192 + x193 - x195 + x197 + x198 - x201 + x216 - x223 + x232 - x234
       - x238 - x239  = 0
 c65:  x252 + x253 - x255 + x257 + x258 - x261 + x276 - x283 + x292 - x294
       - x298 - x299  = 0
 c66:  x312 + x313 - x315 + x317 + x318 - x321 + x336 - x343 + x352 - x354
       - x358 - x359  = 0
 c67:  x372 + x373 - x375 + x377 + x378 - x381 + x396 - x403 + x412 - x414
       - x418 - x419  = 0
 c68:  x432 + x433 - x435 + x437 + x438 - x441 + x456 - x463 + x472 - x474
       - x478 - x479  = 0
 c69:  x492 + x493 - x495 + x497 + x498 - x501 + x516 - x523 + x532 - x534
       - x538 - x539  = 0
 c70:  x552 + x553 - x555 + x557 + x558 - x561 + x576 - x583 + x592 - x594
       - x598 - x599  = 0
 c71:  x5 + x6 - x11 + x21 + x31 + x34 - x37 - x38 + x48 - x50 - x57  = 0
 c72:  x65 + x66 - x71 + x81 + x91 + x94 - x97 - x98 + x108 - x110 - x117  = 0
 c73:  x125 + x126 - x131 + x141 + x151 + x154 - x157 - x158 + x168 - x170
       - x177  = 1
 c74:  x185 + x186 - x191 + x201 + x211 + x214 - x217 - x218 + x228 - x230
       - x237  = 0
 c75:  x245 + x246 - x251 + x261 + x271 + x274 - x277 - x278 + x288 - x290
       - x297  = 0
 c76:  x305 + x306 - x311 + x321 + x331 + x334 - x337 - x338 + x348 - x350
       - x357  = 1
 c77:  x365 + x366 - x371 + x381 + x391 + x394 - x397 - x398 + x408 - x410
       - x417  = 0
 c78:  x425 + x426 - x431 + x441 + x451 + x454 - x457 - x458 + x468 - x470
       - x477  = 0
 c79:  x485 + x486 - x491 + x501 + x511 + x514 - x517 - x518 + x528 - x530
       - x537  = 0
 c80:  x545 + x546 - x551 + x561 + x571 + x574 - x577 - x578 + x588 - x590
       - x597  = 0
 c81:  - x6 - x7 - x16 - x25 - x29 - x30 + x33 - x36 - x41 + x42 + x47 + x59
       + x60  = 0
 c82:  - x66 - x67 - x76 - x85 - x89 - x90 + x93 - x96 - x101 + x102 + x107
       + x119 + x120  = 0
 c83:  - x126 - x127 - x136 - x145 - x149 - x150 + x153 - x156 - x161 + x162
       + x167 + x179 + x180  = 0
 c84:  - x186 - x187 - x196 - x205 - x209 - x210 + x213 - x216 - x221 + x222
       + x227 + x239 + x240  = 0
 c85:  - x246 - x247 - x256 - x265 - x269 - x270 + x273 - x276 - x281 + x282
       + x287 + x299 + x300  = -1
 c86:  - x306 - x307 - x316 - x325 - x329 - x330 + x333 - x336 - x341 + x342
       + x347 + x359 + x360  = 0
 c87:  - x366 - x367 - x376 - x385 - x389 - x390 + x393 - x396 - x401 + x402
       + x407 + x419 + x420  = -1
 c88:  - x426 - x427 - x436 - x445 - x449 - x450 + x453 - x456 - x461 + x462
       + x467 + x479 + x480  = 0
 c89:  - x486 - x487 - x496 - x505 - x509 - x510 + x513 - x516 - x521 + x522
       + x527 + x539 + x540  = 1
 c90:  - x546 - x547 - x556 - x565 - x569 - x570 + x573 - x576 - x581 + x582
       + x587 + x599 + x600  = 1
 c91:  x26 - x32 + x35 - x44 - x46 + x57  = -1
 c92:  x86 - x92 + x95 - x104 - x106 + x117  = 0
 c93:  x146 - x152 + x155 - x164 - x166 + x177  = 0
 c94:  x206 - x212 + x215 - x224 - x226 + x237  = -1
 c95:  x266 - x272 + x275 - x284 - x286 + x297  = 0
 c96:  x326 - x332 + x335 - x344 - x346 + x357  = 0
 c97:  x386 - x392 + x395 - x404 - x406 + x417  = 0
 c98:  x446 - x452 + x455 - x464 - x466 + x477  = 0
 c99:  x506 - x512 + x515 - x524 - x526 + x537  = 0
 c100: x566 - x572 + x575 - x584 - x586 + x597  = 0
 c101: 4 x1 + 4 x61 + 4 x121 + 4 x181 + 4 x241 + 4 x301 + 4 x361 + 4 x421
       + 4 x481 + 4 x541 - 5 x601 <= 0
 c102: 4 x2 + 4 x62 + 4 x122 + 4 x182 + 4 x242 + 4 x302 + 4 x362 + 4 x422
       + 4 x482 + 4 x542 - 5 x602 <= 0
 c103: 4 x3 + 4 x63 + 4 x123 + 4 x183 + 4 x243 + 4 x303 + 4 x363 + 4 x423
       + 4 x483 + 4 x543 - 5 x603 <= 0
 c104: 4 x4 + 4 x64 + 4 x124 + 4 x184 + 4 x244 + 4 x304 + 4 x364 + 4 x424
       + 4 x484 + 4 x544 - 5 x604 <= 0
 c105: 4 x5 + 4 x65 + 4 x125 + 4 x185 + 4 x245 + 4 x305 + 4 x365 + 4 x425
       + 4 x485 + 4 x545 - 5 x605 <= 0
 c106: 4 x6 + 4 x66 + 4 x126 + 4 x186 + 4 x246 + 4 x306 + 4 x366 + 4 x426
       + 4 x486 + 4 x546 - 5 x606 <= 0
 c107: 4 x7 + 4 x67 + 4 x127 + 4 x187 + 4 x247 + 4 x307 + 4 x367 + 4 x427
       + 4 x487 + 4 x547 - 5 x607 <= 0
 c108: 4 x8 + 4 x68 + 4 x128 + 4 x188 + 4 x248 + 4 x308 + 4 x368 + 4 x428
       + 4 x488 + 4 x548 - 5 x608 <= 0
 c109: 4 x9 + 4 x69 + 4 x129 + 4 x189 + 4 x249 + 4 x309 + 4 x369 + 4 x429
       + 4 x489 + 4 x549 - 5 x609 <= 0
 c110: 4 x10 + 4 x70 + 4 x130 + 4 x190 + 4 x250 + 4 x310 + 4 x370 + 4 x430
       + 4 x490 + 4 x550 - 5 x610 <= 0
 c111: 4 x11 + 4 x71 + 4 x131 + 4 x191 + 4 x251 + 4 x311 + 4 x371 + 4 x431
       + 4 x491 + 4 x551 - 5 x611 <= 0
 c112: 4 x12 + 4 x72 + 4 x132 + 4 x192 + 4 x252 + 4 x312 + 4 x372 + 4 x432
       + 4 x492 + 4 x552 - 5 x612 <= 0
 c113: 4 x13 + 4 x73 + 4 x133 + 4 x193 + 4 x253 + 4 x313 + 4 x373 + 4 x433
       + 4 x493 + 4 x553 - 5 x613 <= 0
 c114: 4 x14 + 4 x74 + 4 x134 + 4 x194 + 4 x254 + 4 x314 + 4 x374 + 4 x434
       + 4 x494 + 4 x554 - 5 x614 <= 0
 c115: 4 x15 + 4 x75 + 4 x135 + 4 x195 + 4 x255 + 4 x315 + 4 x375 + 4 x435
       + 4 x495 + 4 x555 - 5 x615 <= 0
 c116: 4 x16 + 4 x76 + 4 x136 + 4 x196 + 4 x256 + 4 x316 + 4 x376 + 4 x436
       + 4 x496 + 4 x556 - 5 x616 <= 0
 c117: 4 x17 + 4 x77 + 4 x137 + 4 x197 + 4 x257 + 4 x317 + 4 x377 + 4 x437
       + 4 x497 + 4 x557 - 5 x617 <= 0
 c118: 4 x18 + 4 x78 + 4 x138 + 4 x198 + 4 x258 + 4 x318 + 4 x378 + 4 x438
       + 4 x498 + 4 x558 - 5 x618 <= 0
 c119: 4 x19 + 4 x79 + 4 x139 + 4 x199 + 4 x259 + 4 x319 + 4 x379 + 4 x439
       + 4 x499 + 4 x559 - 5 x619 <= 0
 c120: 4 x20 + 4 x80 + 4 x140 + 4 x200 + 4 x260 + 4 x320 + 4 x380 + 4 x440
       + 4 x500 + 4 x560 - 5 x620 <= 0
 c121: 4 x21 + 4 x81 + 4 x141 + 4 x201 + 4 x261 + 4 x321 + 4 x381 + 4 x441
       + 4 x501 + 4 x561 - 5 x621 <= 0
 c122: 4 x22 + 4 x82 + 4 x142 + 4 x202 + 4 x262 + 4 x322 + 4 x382 + 4 x442
       + 4 x502 + 4 x562 - 5 x622 <= 0
 c123: 4 x23 + 4 x83 + 4 x143 + 4 x203 + 4 x263 + 4 x323 + 4 x383 + 4 x443
       + 4 x503 + 4 x563 - 5 x623 <= 0
 c124: 4 x24 + 4 x84 + 4 x144 + 4 x204 + 4 x264 + 4 x324 + 4 x384 + 4 x444
       + 4 x504 + 4 x564 - 5 x624 <= 0
 c125: 4 x25 + 4 x85 + 4 x145 + 4 x205 + 4 x265 + 4 x325 + 4 x385 + 4 x445
       + 4 x505 + 4 x565 - 5 x625 <= 0
 c126: 4 x26 + 4 x86 + 4 x146 + 4 x206 + 4 x266 + 4 x326 + 4 x386 + 4 x446
       + 4 x506 + 4 x566 - 5 x626 <= 0
 c127: 4 x27 + 4 x87 + 4 x147 + 4 x207 + 4 x267 + 4 x327 + 4 x387 + 4 x447
       + 4 x507 + 4 x567 - 5 x627 <= 0
 c128: 4 x28 + 4 x88 + 4 x148 + 4 x208 + 4 x268 + 4 x328 + 4 x388 + 4 x448
       + 4 x508 + 4 x568 - 5 x628 <= 0
 c129: 4 x29 + 4 x89 + 4 x149 + 4 x209 + 4 x269 + 4 x329 + 4 x389 + 4 x449
       + 4 x509 + 4 x569 - 5 x629 <= 0
 c130: 4 x30 + 4 x90 + 4 x150 + 4 x210 + 4 x270 + 4 x330 + 4 x390 + 4 x450
       + 4 x510 + 4 x570 - 5 x630 <= 0
 c131: 4 x31 + 4 x91 + 4 x151 + 4 x211 + 4 x271 + 4 x331 + 4 x391 + 4 x451
       + 4 x511 + 4 x571 - 5 x631 <= 0
 c132: 4 x32 + 4 x92 + 4 x152 + 4 x212 + 4 x272 + 4 x332 + 4 x392 + 4 x452
       + 4 x512 + 4 x572 - 5 x632 <= 0
 c133: 4 x33 + 4 x93 + 4 x153 + 4 x213 + 4 x273 + 4 x333 + 4 x393 + 4 x453
       + 4 x513 + 4 x573 - 5 x633 <= 0
 c134: 4 x34 + 4 x94 + 4 x154 + 4 x214 + 4 x274 + 4 x334 + 4 x394 + 4 x454
       + 4 x514 + 4 x574 - 5 x634 <= 0
 c135: 4 x35 + 4 x95 + 4 x155 + 4 x215 + 4 x275 + 4 x335 + 4 x395 + 4 x455
       + 4 x515 + 4 x575 - 5 x635 <= 0
 c136: 4 x36 + 4 x96 + 4 x156 + 4 x216 + 4 x276 + 4 x336 + 4 x396 + 4 x456
       + 4 x516 + 4 x576 - 5 x636 <= 0
 c137: 4 x37 + 4 x97 + 4 x157 + 4 x217 + 4 x277 + 4 x337 + 4 x397 + 4 x457
       + 4 x517 + 4 x577 - 5 x637 <= 0
 c138: 4 x38 + 4 x98 + 4 x158 + 4 x218 + 4 x278 + 4 x338 + 4 x398 + 4 x458
       + 4 x518 + 4 x578 - 5 x638 <= 0
 c139: 4 x39 + 4 x99 + 4 x159 + 4 x219 + 4 x279 + 4 x339 + 4 x399 + 4 x459
       + 4 x519 + 4 x579 - 5 x639 <= 0
 c140: 4 x40 + 4 x100 + 4 x160 + 4 x220 + 4 x280 + 4 x340 + 4 x400 + 4 x460
       + 4 x520 + 4 x580 - 5 x640 <= 0
 c141: 4 x41 + 4 x101 + 4 x161 + 4 x221 + 4 x281 + 4 x341 + 4 x401 + 4 x461
       + 4 x521 + 4 x581 - 5 x641 <= 0
 c142: 4 x42 + 4 x102 + 4 x162 + 4 x222 + 4 x282 + 4 x342 + 4 x402 + 4 x462
       + 4 x522 + 4 x582 - 5 x642 <= 0
 c143: 4 x43 + 4 x103 + 4 x163 + 4 x223 + 4 x283 + 4 x343 + 4 x403 + 4 x463
       + 4 x523 + 4 x583 - 5 x643 <= 0
 c144: 4 x44 + 4 x104 + 4 x164 + 4 x224 + 4 x284 + 4 x344 + 4 x404 + 4 x464
       + 4 x524 + 4 x584 - 5 x644 <= 0
 c145: 4 x45 + 4 x105 + 4 x165 + 4 x225 + 4 x285 + 4 x345 + 4 x405 + 4 x465
       + 4 x525 + 4 x585 - 5 x645 <= 0
 c146: 4 x46 + 4 x106 + 4 x166 + 4 x226 + 4 x286 + 4 x346 + 4 x406 + 4 x466
       + 4 x526 + 4 x586 - 5 x646 <= 0
 c147: 4 x47 + 4 x107 + 4 x167 + 4 x227 + 4 x287 + 4 x347 + 4 x407 + 4 x467
       + 4 x527 + 4 x587 - 5 x647 <= 0
 c148: 4 x48 + 4 x108 + 4 x168 + 4 x228 + 4 x288 + 4 x348 + 4 x408 + 4 x468
       + 4 x528 + 4 x588 - 5 x648 <= 0
 c149: 4 x49 + 4 x109 + 4 x169 + 4 x229 + 4 x289 + 4 x349 + 4 x409 + 4 x469
       + 4 x529 + 4 x589 - 5 x649 <= 0
 c150: 4 x50 + 4 x110 + 4 x170 + 4 x230 + 4 x290 + 4 x350 + 4 x410 + 4 x470
       + 4 x530 + 4 x590 - 5 x650 <= 0
 c151: 4 x51 + 4 x111 + 4 x171 + 4 x231 + 4 x291 + 4 x351 + 4 x411 + 4 x471
       + 4 x531 + 4 x591 - 5 x651 <= 0
 c152: 4 x52 + 4 x112 + 4 x172 + 4 x232 + 4 x292 + 4 x352 + 4 x412 + 4 x472
       + 4 x532 + 4 x592 - 5 x652 <= 0
 c153: 4 x53 + 4 x113 + 4 x173 + 4 x233 + 4 x293 + 4 x353 + 4 x413 + 4 x473
       + 4 x533 + 4 x593 - 5 x653 <= 0
 c154: 4 x54 + 4 x114 + 4 x174 + 4 x234 + 4 x294 + 4 x354 + 4 x414 + 4 x474
       + 4 x534 + 4 x594 - 5 x654 <= 0
 c155: 4 x55 + 4 x115 + 4 x175 + 4 x235 + 4 x295 + 4 x355 + 4 x415 + 4 x475
       + 4 x535 + 4 x595 - 5 x655 <= 0
 c156: 4 x56 + 4 x116 + 4 x176 + 4 x236 + 4 x296 + 4 x356 + 4 x416 + 4 x476
       + 4 x536 + 4 x596 - 5 x656 <= 0
 c157: 4 x57 + 4 x117 + 4 x177 + 4 x237 + 4 x297 + 4 x357 + 4 x417 + 4 x477
       + 4 x537 + 4 x597 - 5 x657 <= 0
 c158: 4 x58 + 4 x118 + 4 x178 + 4 x238 + 4 x298 + 4 x358 + 4 x418 + 4 x478
       + 4 x538 + 4 x598 - 5 x658 <= 0
 c159: 4 x59 + 4 x119 + 4 x179 + 4 x239 + 4 x299 + 4 x359 + 4 x419 + 4 x479
       + 4 x539 + 4 x599 - 5 x659 <= 0
 c160: 4 x60 + 4 x120 + 4 x180 + 4 x240 + 4 x300 + 4 x360 + 4 x420 + 4 x480
       + 4 x540 + 4 x600 - 5 x660 <= 0
Bounds
 0 <= x1 <= 1
 0 <= x2 <= 1
 0 <= x3 <= 1
 0 <= x4 <= 1
 0 <= x5 <= 1
 0 <= x6 <= 1
 0 <= x7 <= 1
 0 <= x8 <= 1
 0 <= x9 <= 1
 0 <= x10 <= 1
 0 <= x11 <= 1
 0 <= x12 <= 1
 0 <= x13 <= 1
 0 <= x14 <= 1
 0 <= x15 <= 1
 0 <= x16 <= 1
 0 <= x17 <= 1
 0 <= x18 <= 1
 0 <= x19 <= 1
 0 <= x20 <= 1
 0 <= x21 <= 1
 0 <= x22 <= 1
 0 <= x23 <= 1
 0 <= x24 <= 1
 0 <= x25 <= 1
 0 <= x26 <= 1
 0 <= x27 <= 1
 0 <= x28 <= 1
 0 <= x29 <= 1
 0 <= x30 <= 1
 0 <= x31 <= 1
 0 <= x32 <= 1
 0 <= x33 <= 1
 0 <= x34 <= 1
 0 <= x35 <= 1
 0 <= x36 <= 1
 0 <= x37 <= 1
 0 <= x38 <= 1
 0 <= x39 <= 1
 0 <= x40 <= 1
 0 <= x41 <= 1
 0 <= x42 <= 1
 0 <= x43 <= 1
 0 <= x44 <= 1
 0 <= x45 <= 1
 0 <= x46 <= 1
 0 <= x47 <= 1
 0 <= x48 <= 1
 0 <= x49 <= 1
 0 <= x50 <= 1
 0 <= x51 <= 1
 0 <= x52 <= 1
 0 <= x53 <= 1
 0 <= x54 <= 1
 0 <= x55 <= 1
 0 <= x56 <= 1
 0 <= x57 <= 1
 0 <= x58 <= 1
 0 <= x59 <= 1
 0 <= x60 <= 1
 0 <= x61 <= 1
 0 <= x62 <= 1
 0 <= x63 <= 1
 0 <= x64 <= 1
 0 <= x65 <= 1
 0 <= x66 <= 1
 0 <= x67 <= 1
 0 <= x68 <= 1
 0 <= x69 <= 1
 0 <= x70 <= 1
 0 <= x71 <= 1
 0 <= x72 <= 1
 0 <= x73 <= 1
 0 <= x74 <= 1
 0 <= x75 <= 1
 0 <= x76 <= 1
 0 <= x77 <= 1
 0 <= x78 <= 1
 0 <= x79 <= 1
 0 <= x80 <= 1
 0 <= x81 <= 1
 0 <= x82 <= 1
 0 <= x83 <= 1
 0 <= x84 <= 1
 0 <= x85 <= 1
 0 <= x86 <= 1
 0 <= x87 <= 1
 0 <= x88 <= 1
 0 <= x89 <= 1
 0 <= x90 <= 1
 0 <= x91 <= 1
 0 <= x92 <= 1
 0 <= x93 <= 1
 0 <= x94 <= 1
 0 <= x95 <= 1
 0 <= x96 <= 1
 0 <= x97 <= 1
 0 <= x98 <= 1
 0 <= x99 <= 1
 0 <= x100 <= 1
 0 <= x101 <= 1
 0 <= x102 <= 1
 0 <= x103 <= 1
 0 <= x104 <= 1
 0 <= x105 <= 1
 0 <= x106 <= 1
 0 <= x107 <= 1
 0 <= x108 <= 1
 0 <= x109 <= 1
 0 <= x110 <= 1
 0 <= x111 <= 1
 0 <= x112 <= 1
 0 <= x113 <= 1
 0 <= x114 <= 1
 0 <= x115 <= 1
 0 <= x116 <= 1
 0 <= x117 <= 1
 0 <= x118 <= 1
 0 <= x119 <= 1
 0 <= x120 <= 1
 0 <= x121 <= 1
 0 <= x122 <= 1
 0 <= x123 <= 1
 0 <= x124 <= 1
 0 <= x125 <= 1
 0 <= x126 <= 1
 0 <= x127 <= 1
 0 <= x128 <= 1
 0 <= x129 <= 1
 0 <= x130 <= 1
 0 <= x131 <= 1
 0 <= x132 <= 1
 0 <= x133 <= 1
 0 <= x134 <= 1
 0 <= x135 <= 1
 0 <= x136 <= 1
 0 <= x137 <= 1
 0 <= x138 <= 1
 0 <= x139 <= 1
 0 <= x140 <= 1
 0 <= x141 <= 1
 0 <= x142 <= 1
 0 <= x143 <= 1
 0 <= x144 <= 1
 0 <= x145 <= 1
 0 <= x146 <= 1
 0 <= x147 <= 1
 0 <= x148 <= 1
 0 <= x149 <= 1
 0 <= x150 <= 1
 0 <= x151 <= 1
 0 <= x152 <= 1
 0 <= x153 <= 1
 0 <= x154 <= 1
 0 <= x155 <= 1
 0 <= x156 <= 1
 0 <= x157 <= 1
 0 <= x158 <= 1
 0 <= x159 <= 1
 0 <= x160 <= 1
 0 <= x161 <= 1
 0 <= x162 <= 1
 0 <= x163 <= 1
 0 <= x164 <= 1
 0 <= x165 <= 1
 0 <= x166 <= 1
 0 <= x167 <= 1
 0 <= x168 <= 1
 0 <= x169 <= 1
 0 <= x170 <= 1
 0 <= x171 <= 1
 0 <= x172 <= 1
 0 <= x173 <= 1
 0 <= x174 <= 1
 0 <= x175 <= 1
 0 <= x176 <= 1
 0 <= x177 <= 1
 0 <= x178 <= 1
 0 <= x179 <= 1
 0 <= x180 <= 1
 0 <= x181 <= 1
 0 <= x182 <= 1
 0 <= x183 <= 1
 0 <= x184 <= 1
 0 <= x185 <= 1
 0 <= x186 <= 1
 0 <= x187 <= 1
 0 <= x188 <= 1
 0 <= x189 <= 1
 0 <= x190 <= 1
 0 <= x191 <= 1
 0 <= x192 <= 1
 0 <= x193 <= 1
 0 <= x194 <= 1
 0 <= x195 <= 1
 0 <= x196 <= 1
 0 <= x197 <= 1
 0 <= x198 <= 1
 0 <= x199 <= 1
 0 <= x200 <= 1
 0 <= x201 <= 1
 0 <= x202 <= 1
 0 <= x203 <= 1
 0 <= x204 <= 1
 0 <= x205 <= 1
 0 <= x206 <= 1
 0 <= x207 <= 1
 0 <= x208 <= 1
 0 <= x209 <= 1
 0 <= x210 <= 1
 0 <= x211 <= 1
 0 <= x212 <= 1
 0 <= x213 <= 1
 0 <= x214 <= 1
 0 <= x215 <= 1
 0 <= x216 <= 1
 0 <= x217 <= 1
 0 <= x218 <= 1
 0 <= x219 <= 1
 0 <= x220 <= 1
 0 <= x221 <= 1
 0 <= x222 <= 1
 0 <= x223 <= 1
 0 <= x224 <= 1
 0 <= x225 <= 1
 0 <= x226 <= 1
 0 <= x227 <= 1
 0 <= x228 <= 1
 0 <= x229 <= 1
 0 <= x230 <= 1
 0 <= x231 <= 1
 0 <= x232 <= 1
 0 <= x233 <= 1
 0 <= x234 <= 1
 0 <= x235 <= 1
 0 <= x236 <= 1
 0 <= x237 <= 1
 0 <= x238 <= 1
 0 <= x239 <= 1
 0 <= x240 <= 1
 0 <= x241 <= 1
 0 <= x242 <= 1
 0 <= x243 <= 1
 0 <= x244 <= 1
 0 <= x245 <= 1
 0 <= x246 <= 1
 0 <= x247 <= 1
 0 <= x248 <= 1
 0 <= x249 <= 1
 0 <= x250 <= 1
 0 <= x251 <= 1
 0 <= x252 <= 1
 0 <= x253 <= 1
 0 <= x254 <= 1
 0 <= x255 <= 1
 0 <= x256 <= 1
 0 <= x257 <= 1
 0 <= x258 <= 1
 0 <= x259 <= 1
 0 <= x260 <= 1
 0 <= x261 <= 1
 0 <= x262 <= 1
 0 <= x263 <= 1
 0 <= x264 <= 1
 0 <= x265 <= 1
 0 <= x266 <= 1
 0 <= x267 <= 1
 0 <= x268 <= 1
 0 <= x269 <= 1
 0 <= x270 <= 1
 0 <= x271 <= 1
 0 <= x272 <= 1
 0 <= x273 <= 1
 0 <= x274 <= 1
 0 <= x275 <= 1
 0 <= x276 <= 1
 0 <= x277 <= 1
 0 <= x278 <= 1
 0 <= x279 <= 1
 0 <= x280 <= 1
 0 <= x281 <= 1
 0 <= x282 <= 1
 0 <= x283 <= 1
 0 <= x284 <= 1
 0 <= x285 <= 1
 0 <= x286 <= 1
 0 <= x287 <= 1
 0 <= x288 <= 1
 0 <= x289 <= 1
 0 <= x290 <= 1
 0 <= x291 <= 1
 0 <= x292 <= 1
 0 <= x293 <= 1
 0 <= x294 <= 1
 0 <= x295 <= 1
 0 <= x296 <= 1
 0 <= x297 <= 1
 0 <= x298 <= 1
 0 <= x299 <= 1
 0 <= x300 <= 1
 0 <= x301 <= 1
 0 <= x302 <= 1
 0 <= x303 <= 1
 0 <= x304 <= 1
 0 <= x305 <= 1
 0 <= x306 <= 1
 0 <= x307 <= 1
 0 <= x308 <= 1
 0 <= x309 <= 1
 0 <= x310 <= 1
 0 <= x311 <= 1
 0 <= x312 <= 1
 0 <= x313 <= 1
 0 <= x314 <= 1
 0 <= x315 <= 1
 0 <= x316 <= 1
 0 <= x317 <= 1
 0 <= x318 <= 1
 0 <= x319 <= 1
 0 <= x320 <= 1
 0 <= x321 <= 1
 0 <= x322 <= 1
 0 <= x323 <= 1
 0 <= x324 <= 1
 0 <= x325 <= 1
 0 <= x326 <= 1
 0 <= x327 <= 1
 0 <= x328 <= 1
 0 <= x329 <= 1
 0 <= x330 <= 1
 0 <= x331 <= 1
 0 <= x332 <= 1
 0 <= x333 <= 1
 0 <= x334 <= 1
 0 <= x335 <= 1
 0 <= x336 <= 1
 0 <= x337 <= 1
 0 <= x338 <= 1
 0 <= x339 <= 1
 0 <= x340 <= 1
 0 <= x341 <= 1
 0 <= x342 <= 1
 0 <= x343 <= 1
 0 <= x344 <= 1
 0 <= x345 <= 1
 0 <= x346 <= 1
 0 <= x347 <= 1
 0 <= x348 <= 1
 0 <= x349 <= 1
 0 <= x350 <= 1
 0 <= x351 <= 1
 0 <= x352 <= 1
 0 <= x353 <= 1
 0 <= x354 <= 1
 0 <= x355 <= 1
 0 <= x356 <= 1
 0 <= x357 <= 1
 0 <= x358 <= 1
 0 <= x359 <= 1
 0 <= x360 <= 1
 0 <= x361 <= 1
 0 <= x362 <= 1
 0 <= x363 <= 1
 0 <= x364 <= 1
 0 <= x365 <= 1
 0 <= x366 <= 1
 0 <= x367 <= 1
 0 <= x368 <= 1
 0 <= x369 <= 1
 0 <= x370 <= 1
 0 <= x371 <= 1
 0 <= x372 <= 1
 0 <= x373 <= 1
 0 <= x374 <= 1
 0 <= x375 <= 1
 0 <= x376 <= 1
 0 <= x377 <= 1
 0 <= x378 <= 1
 0 <= x379 <= 1
 0 <= x380 <= 1
 0 <= x381 <= 1
 0 <= x382 <= 1
 0 <= x383 <= 1
 0 <= x384 <= 1
 0 <= x385 <= 1
 0 <= x386 <= 1
 0 <= x387 <= 1
 0 <= x388 <= 1
 0 <= x389 <= 1
 0 <= x390 <= 1
 0 <= x391 <= 1
 0 <= x392 <= 1
 0 <= x393 <= 1
 0 <= x394 <= 1
 0 <= x395 <= 1
 0 <= x396 <= 1
 0 <= x397 <= 1
 0 <= x398 <= 1
 0 <= x399 <= 1
 0 <= x400 <= 1
 0 <= x401 <= 1
 0 <= x402 <= 1
 0 <= x403 <= 1
 0 <= x404 <= 1
 0 <= x405 <= 1
 0 <= x406 <= 1
 0 <= x407 <= 1
 0 <= x408 <= 1
 0 <= x409 <= 1
 0 <= x410 <= 1
 0 <= x411 <= 1
 0 <= x412 <= 1
 0 <= x413 <= 1
 0 <= x414 <= 1
 0 <= x415 <= 1
 0 <= x416 <= 1
 0 <= x417 <= 1
 0 <= x418 <= 1
 0 <= x419 <= 1
 0 <= x420 <= 1
 0 <= x421 <= 1
 0 <= x422 <= 1
 0 <= x423 <= 1
 0 <= x424 <= 1
 0 <= x425 <= 1
 0 <= x426 <= 1
 0 <= x427 <= 1
 0 <= x428 <= 1
 0 <= x429 <= 1
 0 <= x430 <= 1
 0 <= x431 <= 1
 0 <= x432 <= 1
 0 <= x433 <= 1
 0 <= x434 <= 1
 0 <= x435 <= 1
 0 <= x436 <= 1
 0 <= x437 <= 1
 0 <= x438 <= 1
 0 <= x439 <= 1
 0 <= x440 <= 1
 0 <= x441 <= 1
 0 <= x442 <= 1
 0 <= x443 <= 1
 0 <= x444 <= 1
 0 <= x445 <= 1
 0 <= x446 <= 1
 0 <= x447 <= 1
 0 <= x448 <= 1
 0 <= x449 <= 1
 0 <= x450 <= 1
 0 <= x451 <= 1
 0 <= x452 <= 1
 0 <= x453 <= 1
 0 <= x454 <= 1
 0 <= x455 <= 1
 0 <= x456 <= 1
 0 <= x457 <= 1
 0 <= x458 <= 1
 0 <= x459 <= 1
 0 <= x460 <= 1
 0 <= x461 <= 1
 0 <= x462 <= 1
 0 <= x463 <= 1
 0 <= x464 <= 1
 0 <= x465 <= 1
 0 <= x466 <= 1
 0 <= x467 <= 1
 0 <= x468 <= 1
 0 <= x469 <= 1
 0 <= x470 <= 1
 0 <= x471 <= 1
 0 <= x472 <= 1
 0 <= x473 <= 1
 0 <= x474 <= 1
 0 <= x475 <= 1
 0 <= x476 <= 1
 0 <= x477 <= 1
 0 <= x478 <= 1
 0 <= x479 <= 1
 0 <= x480 <= 1
 0 <= x481 <= 1
 0 <= x482 <= 1
 0 <= x483 <= 1
 0 <= x484 <= 1
 0 <= x485 <= 1
 0 <= x486 <= 1
 0 <= x487 <= 1
 0 <= x488 <= 1
 0 <= x489 <= 1
 0 <= x490 <= 1
 0 <= x491 <= 1
 0 <= x492 <= 1
 0 <= x493 <= 1
 0 <= x494 <= 1
 0 <= x495 <= 1
 0 <= x496 <= 1
 0 <= x497 <= 1
 0 <= x498 <= 1
 0 <= x499 <= 1
 0 <= x500 <= 1
 0 <= x501 <= 1
 0 <= x502 <= 1
 0 <= x503 <= 1
 0 <= x504 <= 1
 0 <= x505 <= 1
 0 <= x506 <= 1
 0 <= x507 <= 1
 0 <= x508 <= 1
 0 <= x509 <= 1
 0 <= x510 <= 1
 0 <= x511 <= 1
 0 <= x512 <= 1
 0 <= x513 <= 1
 0 <= x514 <= 1
 0 <= x515 <= 1
 0 <= x516 <= 1
 0 <= x517 <= 1
 0 <= x518 <= 1
 0 <= x519 <= 1
 0 <= x520 <= 1
 0 <= x521 <= 1
 0 <= x522 <= 1
 0 <= x523 <= 1
 0 <= x524 <= 1
 0 <= x525 <= 1
 0 <= x526 <= 1
 0 <= x527 <= 1
 0 <= x528 <= 1
 0 <= x529 <= 1
 0 <= x530 <= 1
 0 <= x531 <= 1
 0 <= x532 <= 1
 0 <= x533 <= 1
 0 <= x534 <= 1
 0 <= x535 <= 1
 0 <= x536 <= 1
 0 <= x537 <= 1
 0 <= x538 <= 1
 0 <= x539 <= 1
 0 <= x540 <= 1
 0 <= x541 <= 1
 0 <= x542 <= 1
 0 <= x543 <= 1
 0 <= x544 <= 1
 0 <= x545 <= 1
 0 <= x546 <= 1
 0 <= x547 <= 1
 0 <= x548 <= 1
 0 <= x549 <= 1
 0 <= x550 <= 1
 0 <= x551 <= 1
 0 <= x552 <= 1
 0 <= x553 <= 1
 0 <= x554 <= 1
 0 <= x555 <= 1
 0 <= x556 <= 1
 0 <= x557 <= 1
 0 <= x558 <= 1
 0 <= x559 <= 1
 0 <= x560 <= 1
 0 <= x561 <= 1
 0 <= x562 <= 1
 0 <= x563 <= 1
 0 <= x564 <= 1
 0 <= x565 <= 1
 0 <= x566 <= 1
 0 <= x567 <= 1
 0 <= x568 <= 1
 0 <= x569 <= 1
 0 <= x570 <= 1
 0 <= x571 <= 1
 0 <= x572 <= 1
 0 <= x573 <= 1
 0 <= x574 <= 1
 0 <= x575 <= 1
 0 <= x576 <= 1
 0 <= x577 <= 1
 0 <= x578 <= 1
 0 <= x579 <= 1
 0 <= x580 <= 1
 0 <= x581 <= 1
 0 <= x582 <= 1
 0 <= x583 <= 1
 0 <= x584 <= 1
 0 <= x585 <= 1
 0 <= x586 <= 1
 0 <= x587 <= 1
 0 <= x588 <= 1
 0 <= x589 <= 1
 0 <= x590 <= 1
 0 <= x591 <= 1
 0 <= x592 <= 1
 0 <= x593 <= 1
 0 <= x594 <= 1
 0 <= x595 <= 1
 0 <= x596 <= 1
 0 <= x597 <= 1
 0 <= x598 <= 1
 0 <= x599 <= 1
 0 <= x600 <= 1
 0 <= x601 <= 1
 0 <= x602 <= 1
 0 <= x603 <= 1
 0 <= x604 <= 1
 0 <= x605 <= 1
 0 <= x606 <= 1
 0 <= x607 <= 1
 0 <= x608 <= 1
 0 <= x609 <= 1
 0 <= x610 <= 1
 0 <= x611 <= 1
 0 <= x612 <= 1
 0 <= x613 <= 1
 0 <= x614 <= 1
 0 <= x615 <= 1
 0 <= x616 <= 1
 0 <= x617 <= 1
 0 <= x618 <= 1
 0 <= x619 <= 1
 0 <= x620 <= 1
 0 <= x621 <= 1
 0 <= x622 <= 1
 0 <= x623 <= 1
 0 <= x624 <= 1
 0 <= x625 <= 1
 0 <= x626 <= 1
 0 <= x627 <= 1
 0 <= x628 <= 1
 0 <= x629 <= 1
 0 <= x630 <= 1
 0 <= x631 <= 1
 0 <= x632 <= 1
 0 <= x633 <= 1
 0 <= x634 <= 1
 0 <= x635 <= 1
 0 <= x636 <= 1
 0 <= x637 <= 1
 0 <= x638 <= 1
 0 <= x639 <= 1
 0 <= x640 <= 1
 0 <= x641 <= 1
 0 <= x642 <= 1
 0 <= x643 <= 1
 0 <= x644 <= 1
 0 <= x645 <= 1
 0 <= x646 <= 1
 0 <= x647 <= 1
 0 <= x648 <= 1
 0 <= x649 <= 1
 0 <= x650 <= 1
 0 <= x651 <= 1
 0 <= x652 <= 1
 0 <= x653 <= 1
 0 <= x654 <= 1
 0 <= x655 <= 1
 0 <= x656 <= 1
 0 <= x657 <= 1
 0 <= x658 <= 1
 0 <= x659 <= 1
 0 <= x660 <= 1
Binaries
 x601  x602  x603  x604  x605  x606  x607  x608  x609  x610  x611  x612  x613 
 x614  x615  x616  x617  x618  x619  x620  x621  x622  x623  x624  x625  x626 
 x627  x628  x629  x630  x631  x632  x633  x634  x635  x636  x637  x638  x639 
 x640  x641  x642  x643  x644  x645  x646  x647  x648  x649  x650  x651  x652 
 x653  x654  x655  x656  x657  x658  x659  x660 
End
